317,142
558,237
705,423
787,352
857,164
858,434
664,430
672,378
533,383
439,230
417,42
597,-127
681,316
627,512
609,458
504,378
406,131
681,-104
653,397
521,487
311,526
385,702
626,577
1095,471
899,564
858,753
766,433
921,406
792,748
912,860
542,833
